% demand
num_movements = 21;
loading_factor = [1850, 1400, 850, 1300, 1150, 1300, 800, 1050, 850, 1900, 1800, 1750, 1250, 1000, 1050, 2000, 1250, 1900, 1800, 950, 1750];
pickup_time = [0, 0, 0, 0, 1, 3, 4, 4, 4, 4, 5, 8, 9, 9, 9, 10, 11, 11, 11, 12, 13];
delivery_time = [1, 1, 1, 3, 2, 4, 8, 7, 8, 8, 7, 9, 12, 11, 11, 11, 13, 14, 14, 14, 14];

% transporter definition
total_capacity = 7000;
num_decks = 3;
capacity = [3000, 1000, 3000];

% ways out of decks
num_ways_out = 1;
paths_out = array3d(decks, ways_out, decks, [
% ways out of deck d1
2, 3, 0, 

% ways out of deck d2
3, 0, 0, 

% ways out of deck d3
0, 0, 0,	

]);

